Instance name: /home/cuong/CLionProjects/uMV-FSTSP/50_dis_rand_ins/v62
Write arg val: 1

drone speed: 1 miles/minute
uav non-eligible customer: 5 11 
Printing tau:
0 11.2695 60.1543 55.4199 48.2509 54.2142 45.3035 50.0415 52.6882 106.958 81.4954 0 
11.2695 0 48.8849 55.4941 36.9814 42.9448 34.034 45.4604 41.4187 95.6881 70.2259 11.2695 
60.1543 48.8849 0 26.8629 38.0144 28.1591 23.8381 74.0916 62.8698 46.8033 31.7214 60.1543 
55.4199 55.4941 26.8629 0 64.8773 55.022 50.701 100.954 89.7327 51.8904 58.5844 55.4199 
48.2509 36.9814 38.0144 64.8773 0 9.85529 14.1763 36.0772 24.8554 58.7067 33.2445 48.2509 
54.2142 42.9448 28.1591 55.022 9.85529 0 8.91074 45.9324 34.7107 52.7434 27.2812 54.2142 
45.3035 34.034 23.8381 50.701 14.1763 8.91074 0 50.2535 39.0317 61.6541 36.1919 45.3035 
50.0415 45.4604 74.0916 100.954 36.0772 45.9324 50.2535 0 16.6913 70.9607 45.4986 50.0415 
52.6882 41.4187 62.8698 89.7327 24.8554 34.7107 39.0317 16.6913 0 54.2694 31.1484 52.6882 
106.958 95.6881 46.8033 51.8904 58.7067 52.7434 61.6541 70.9607 54.2694 0 25.4622 106.958 
81.4954 70.2259 31.7214 58.5844 33.2445 27.2812 36.1919 45.4986 31.1484 25.4622 0 81.4954 
0 0 0 0 0 0 0 0 0 0 0 0 
Printing tau_prime:
0 3.22574 17.1784 19.9553 13.3195 14.417 12.013 16.3457 17.3537 28.3626 21.7053 0 
3.22574 0 15.0222 18.804 10.1169 11.3881 9.1137 13.7224 14.2495 25.3911 18.6395 3.22574 
17.1784 15.0222 0 7.23289 10.5627 7.63114 7.44732 20.6644 16.788 14.0736 10.1378 17.1784 
19.9553 18.804 7.23289 0 17.3079 14.5934 13.7091 27.2605 23.805 19.3929 17.0038 19.9553 
13.3195 10.1169 10.5627 17.3079 0 3.05444 3.83945 10.1032 6.69499 15.9433 8.97182 13.3195 
14.417 11.3881 7.63114 14.5934 3.05444 0 2.62597 13.1026 9.21296 14.0103 7.29542 14.417 
12.013 9.1137 7.44732 13.7091 3.83945 2.62597 0 13.5521 10.5335 16.3516 9.82186 12.013 
16.3457 13.7224 20.6644 27.2605 10.1032 13.1026 13.5521 0 5.33323 22.8761 16.4858 16.3457 
17.3537 14.2495 16.788 23.805 6.69499 9.21296 10.5335 5.33323 0 17.5435 11.2502 17.3537 
28.3626 25.3911 14.0736 19.3929 15.9433 14.0103 16.3516 22.8761 17.5435 0 6.98111 28.3626 
21.7053 18.6395 10.1378 17.0038 8.97182 7.29542 9.82186 16.4858 11.2502 6.98111 0 21.7053 
0 0 0 0 0 0 0 0 0 0 0 0 
Version identifier: 22.1.1.0 | 2022-11-28 | 9160aff4d
CPXPARAM_MIP_Tolerances_Integrality              0
Tried aggregator 1 time.
MIP Presolve eliminated 1 rows and 12 columns.
MIP Presolve modified 20 coefficients.
Reduced MIP has 122 rows, 120 columns, and 510 nonzeros.
Reduced MIP has 110 binaries, 0 generals, 0 SOSs, and 0 indicators.
Presolve time = 0.00 sec. (0.27 ticks)
Found incumbent of value 542.885540 after 0.00 sec. (0.75 ticks)
Probing time = 0.00 sec. (0.26 ticks)
Cover probing fixed 0 vars, tightened 10 bounds.
Tried aggregator 1 time.
Detecting symmetries...
MIP Presolve eliminated 10 rows and 0 columns.
MIP Presolve modified 180 coefficients.
Reduced MIP has 112 rows, 120 columns, and 490 nonzeros.
Reduced MIP has 110 binaries, 0 generals, 0 SOSs, and 0 indicators.
Presolve time = 0.00 sec. (0.35 ticks)
Probing time = 0.00 sec. (0.26 ticks)
Clique table members: 67.
MIP emphasis: balance optimality and feasibility.
MIP search method: dynamic search.
Parallel mode: deterministic, using up to 20 threads.
Root relaxation solution time = 0.00 sec. (0.21 ticks)

        Nodes                                         Cuts/
   Node  Left     Objective  IInf  Best Integer    Best Bound    ItCnt     Gap

*     0+    0                          542.8855        0.0000           100.00%
      0     0      205.4664    19      542.8855      205.4664       25   62.15%
*     0+    0                          304.1806      205.4664            32.45%
      0     0      253.2755    18      304.1806      Cuts: 32       43   16.74%
      0     0      253.2755    18      304.1806      Cuts: 22       51   16.74%
      0     0      253.2755    18      304.1806    MIRcuts: 2       52   16.74%
*     0+    0                          292.9517      253.2755            13.54%
Detecting symmetries...
      0     2      253.2755    18      292.9517      263.5425       52   10.04%
Elapsed time = 0.02 sec. (8.08 ticks, tree = 0.02 MB, solutions = 3)

Clique cuts applied:  3
Implied bound cuts applied:  173
Mixed integer rounding cuts applied:  13
Multi commodity flow cuts applied:  10
Gomory fractional cuts applied:  2

Root node processing (before b&c):
  Real time             =    0.02 sec. (8.01 ticks)
Parallel b&c, 20 threads:
  Real time             =    0.01 sec. (7.38 ticks)
  Sync time (average)   =    0.01 sec.
  Wait time (average)   =    0.00 sec.
                          ------------
Total (root+branch&cut) =    0.04 sec. (15.39 ticks)

TSP solution for this instance: 0 7 8 10 9 3 2 6 5 4 1 11 
12
Warmstart X[1][0] == 1
Warmstart X[2][7] == 1
Warmstart X[3][8] == 1
Warmstart X[4][10] == 1
Warmstart X[5][9] == 1
Warmstart X[6][3] == 1
Warmstart X[7][2] == 1
Warmstart X[8][6] == 1
Warmstart X[9][5] == 1
Warmstart X[10][4] == 1
Warmstart X[11][1] == 1
---------------------------------------------
Calculate max stage gap for sortie.... 
Stage gap of 3 with smallest length = 22.539 violated endurance constraint!
---------------------------------------------
Variable z[1][4] was set to 0.
Variable z[1][5] was set to 0.
Variable z[1][6] was set to 0.
Variable z[1][7] was set to 0.
Variable z[1][8] was set to 0.
Variable z[1][9] was set to 0.
Variable z[1][10] was set to 0.
Variable z[1][11] was set to 0.
Variable z[1][12] was set to 0.
Variable z[2][5] was set to 0.
Variable z[2][6] was set to 0.
Variable z[2][7] was set to 0.
Variable z[2][8] was set to 0.
Variable z[2][9] was set to 0.
Variable z[2][10] was set to 0.
Variable z[2][11] was set to 0.
Variable z[2][12] was set to 0.
Variable z[3][6] was set to 0.
Variable z[3][7] was set to 0.
Variable z[3][8] was set to 0.
Variable z[3][9] was set to 0.
Variable z[3][10] was set to 0.
Variable z[3][11] was set to 0.
Variable z[3][12] was set to 0.
Variable z[4][7] was set to 0.
Variable z[4][8] was set to 0.
Variable z[4][9] was set to 0.
Variable z[4][10] was set to 0.
Variable z[4][11] was set to 0.
Variable z[4][12] was set to 0.
Variable z[5][8] was set to 0.
Variable z[5][9] was set to 0.
Variable z[5][10] was set to 0.
Variable z[5][11] was set to 0.
Variable z[5][12] was set to 0.
Variable z[6][9] was set to 0.
Variable z[6][10] was set to 0.
Variable z[6][11] was set to 0.
Variable z[6][12] was set to 0.
Variable z[7][10] was set to 0.
Variable z[7][11] was set to 0.
Variable z[7][12] was set to 0.
Variable z[8][11] was set to 0.
Variable z[8][12] was set to 0.
Variable z[9][12] was set to 0.
Num constraint added = 5346
Warning:  Output names have been modified due to duplicate names or characters invalid in LP format.
Version identifier: 22.1.1.0 | 2022-11-28 | 9160aff4d
CPXPARAM_TimeLimit                               200
CPXPARAM_MIP_Tolerances_Integrality              0
1 of 1 MIP starts provided solutions.
MIP start 'm1' defined initial solution with objective 292.9517.
Tried aggregator 7 times.
MIP Presolve eliminated 7013 rows and 2437 columns.
MIP Presolve modified 2249 coefficients.
Aggregator did 53 substitutions.
Reduced MIP has 1191 rows, 2286 columns, and 47835 nonzeros.
Reduced MIP has 2265 binaries, 0 generals, 0 SOSs, and 0 indicators.
Presolve time = 0.12 sec. (306.72 ticks)
Probing fixed 221 vars, tightened 0 bounds.
Probing changed sense of 4 constraints.
Probing time = 0.03 sec. (63.65 ticks)
Cover probing fixed 0 vars, tightened 23 bounds.
Tried aggregator 2 times.
MIP Presolve eliminated 79 rows and 231 columns.
MIP Presolve modified 303 coefficients.
Aggregator did 7 substitutions.
Reduced MIP has 1100 rows, 2048 columns, and 36032 nonzeros.
Reduced MIP has 2027 binaries, 0 generals, 0 SOSs, and 0 indicators.
Presolve time = 0.02 sec. (53.43 ticks)
Probing time = 0.00 sec. (4.72 ticks)
Tried aggregator 1 time.
Detecting symmetries...
MIP Presolve modified 114 coefficients.
Reduced MIP has 1097 rows, 2048 columns, and 35918 nonzeros.
Reduced MIP has 2027 binaries, 0 generals, 0 SOSs, and 0 indicators.
Presolve time = 0.02 sec. (33.27 ticks)
Probing time = 0.00 sec. (4.70 ticks)
Clique table members: 9014.
MIP emphasis: balance optimality and feasibility.
MIP search method: dynamic search.
Parallel mode: deterministic, using up to 20 threads.
Root relaxation solution time = 0.11 sec. (224.27 ticks)

        Nodes                                         Cuts/
   Node  Left     Objective  IInf  Best Integer    Best Bound    ItCnt     Gap

*     0+    0                          292.9517       11.2695            96.15%
      0     0      212.1793   185      292.9517      212.1793       39   27.57%
      0     0      221.0507   242      292.9517      Cuts: 59      690   23.19%
      0     0      229.9274   234      292.9517      Cuts: 40     1232   21.51%
      0     0      231.6514   272      292.9517      Cuts: 21     1662   20.93%
      0     0      232.4095   260      292.9517       Cuts: 6     2430   20.67%
      0     0      232.5068   252      292.9517       Cuts: 4     2577   20.63%
Detecting symmetries...
      0     0      232.6515   273      292.9517       Cuts: 4     2764   20.58%
      0     0      232.6515   300      292.9517   ZeroHalf: 1     2821   20.58%
Detecting symmetries...
      0     2      232.6515   273      292.9517      233.3689     2821   20.34%
Elapsed time = 1.05 sec. (1836.27 ticks, tree = 0.02 MB, solutions = 1)
*     5+    4                          291.0598      233.3689            19.82%
      5     6      238.0116    98      291.0598      233.3689     4704   19.82%
     26    10      238.7754   284      291.0598      236.7850    15772   18.65%
*   406    69      integral     0      282.7589      240.7296    56004   14.86%
    436    51        cutoff            282.7589      240.7296    63623   14.86%
   1621    41        cutoff            282.7589      244.6453   118379   13.48%
   2207    20        cutoff            282.7589      256.9566   163350    9.13%

GUB cover cuts applied:  3
Clique cuts applied:  1
Cover cuts applied:  83
Implied bound cuts applied:  12
Mixed integer rounding cuts applied:  1
Zero-half cuts applied:  23
Gomory fractional cuts applied:  6

Root node processing (before b&c):
  Real time             =    1.03 sec. (1809.48 ticks)
Parallel b&c, 20 threads:
  Real time             =    1.19 sec. (1483.37 ticks)
  Sync time (average)   =    0.63 sec.
  Wait time (average)   =    0.00 sec.
                          ------------
Total (root+branch&cut) =    2.22 sec. (3292.85 ticks)
Feasible solution found!
Truck nodes:
Stage 1 at customer 0 with arrival time is: 0
Stage 1 at customer 0 with departure time is: 0
Stage 2 at customer 3 with arrival time is: 55.4199
Stage 2 at customer 3 with departure time is: 55.4199
Stage 3 at customer 9 with arrival time is: 107.31
Stage 3 at customer 9 with departure time is: 107.31
Stage 4 at customer 10 with arrival time is: 132.773
Stage 4 at customer 10 with departure time is: 132.773
Stage 5 at customer 8 with arrival time is: 163.921
Stage 5 at customer 8 with departure time is: 163.921
Stage 6 at customer 7 with arrival time is: 180.612
Stage 6 at customer 7 with departure time is: 180.612
Stage 7 at customer 4 with arrival time is: 216.689
Stage 7 at customer 4 with departure time is: 217.689
Stage 8 at customer 5 with arrival time is: 227.545
Stage 8 at customer 5 with departure time is: 227.545
Stage 9 at customer 6 with arrival time is: 236.455
Stage 9 at customer 6 with departure time is: 237.455
Stage 10 at customer 1 with arrival time is: 271.489
Stage 10 at customer 1 with departure time is: 271.489
Stage 11 at customer 11 with arrival time is: 282.759
Stage 11 at customer 11 with departure time is: 282.759
Truck arcs:
Arc 1 connecting 0 and 3 with cost 55.4199 
Arc 2 connecting 3 and 9 with cost 51.8904 
Arc 3 connecting 9 and 10 with cost 25.4622 
Arc 4 connecting 10 and 8 with cost 31.1484 
Arc 5 connecting 8 and 7 with cost 16.6913 
Arc 6 connecting 7 and 4 with cost 36.0772 
Arc 7 connecting 4 and 5 with cost 9.85529 
Arc 8 connecting 5 and 6 with cost 8.91074 
Arc 9 connecting 6 and 1 with cost 34.034 
Arc 10 connecting 1 and 11 with cost 11.2695 
Customer 2 served by drone.
Drone fly from 4 at stage 7 to serve 2 and then fly back to 6 at stage 9. 
Truck arcs during this sortie: 4--->5--->6
Truck travel time from stage 7 to 9 is: 18.766
Total drone travel time: 18.01
Drone arrival time: 235.699
Truck arrival time: 236.455
Truck departure time = max(d/a, t/a) plus (sl/sr): 237.455
Done!
-------------------------Re-calculated objective-----------------------
282.759
------------------------------------------------------------------------
Solve time: 2.224
OBJECTIVE VALUE: 282.759, NUMBER OF SORTIES: 1.
Number of revisit: 0
In write mode
